Set parameter Username
Set parameter LogFile to value "gurobi.log"
Academic license - for non-commercial use only - expires 2024-05-02
Using license file /Users/sissi/gurobi.lic

Gurobi Optimizer version 10.0.1 build v10.0.1rc0 (mac64[arm])
Copyright (c) 2023, Gurobi Optimization, LLC

Read OPB format model from file pbo/p_pbo_0_2392.opb
Reading time = 0.00 seconds
(null): 2005 rows, 1057 columns, 5973 nonzeros

CPU model: Apple M2
Thread count: 8 physical cores, 8 logical processors, using up to 8 threads

Optimize a model with 2005 rows, 1057 columns and 5973 nonzeros
Model fingerprint: 0xc8f86bb3
Variable types: 0 continuous, 1057 integer (1057 binary)
Coefficient statistics:
  Matrix range     [1e+00, 1e+00]
  Objective range  [1e+00, 4e+00]
  Bounds range     [1e+00, 1e+00]
  RHS range        [1e+00, 1e+00]
Found heuristic solution: objective -354.0000000
Presolve removed 1057 rows and 539 columns
Presolve time: 0.00s
Presolved: 948 rows, 518 columns, 2844 nonzeros
Variable types: 0 continuous, 518 integer (518 binary)

Root relaxation: objective -5.820000e+02, 136 iterations, 0.00 seconds (0.00 work units)

    Nodes    |    Current Node    |     Objective Bounds      |     Work
 Expl Unexpl |  Obj  Depth IntInf | Incumbent    BestBd   Gap | It/Node Time

     0     0 -582.00000    0   44 -354.00000 -582.00000  64.4%     -    0s
     0     0 -417.29457    0  508 -354.00000 -417.29457  17.9%     -    0s
H    0     0                    -368.0000000 -398.81959  8.37%     -    0s
H    0     0                    -370.0000000 -398.81959  7.79%     -    0s
     0     0 -398.81959    0  516 -370.00000 -398.81959  7.79%     -    0s
H    0     0                    -377.0000000 -398.81959  5.79%     -    0s
H    0     0                    -395.0000000 -398.81959  0.97%     -    0s
     0     0 -396.84987    0  516 -395.00000 -396.84987  0.47%     -    1s
     0     0 -396.34386    0  517 -395.00000 -396.34386  0.34%     -    1s
     0     0 -396.11213    0  517 -395.00000 -396.11213  0.28%     -    1s
     0     0 -396.04278    0  517 -395.00000 -396.04278  0.26%     -    1s
     0     0     cutoff    0      -395.00000 -395.00000  0.00%     -    1s

Cutting planes:
  MIR: 71
  RLT: 346

Explored 1 nodes (4348 simplex iterations) in 1.44 seconds (0.72 work units)
Thread count was 8 (of 8 available processors)

Solution count 5: -395 -377 -370 ... -354
No other solutions better than -395

Optimal solution found (tolerance 1.00e-04)
Best objective -3.950000000000e+02, best bound -3.950000000000e+02, gap 0.0000%

Wrote result file 'solution/p_0_2392.sol'

